119
100000000
9295085
2495600
17613379
17325303
21733995
1442887
19622569
17919499
18710545
81941
5687519
8502496
19863139
10195079
6309041
3967354
12214546
875541
18591900
4306198
4481738
4550076
11353850
12736702
5289869
6966852
21994151
6051669
2143162
2430938
17050148
2001864
20995486
360368
21281675
13534472
14813086
13606066
22133628
24152603
24561252
7790600
4414657
10782732
5420402
11835410
12900471
21803218
21154157
18116206
15095262
11599132
21421397
19354624
4062067
15237021
9767951
18158456
17553356
23870585
4536729
19235771
21672350
2706870
6761843
15158982
3044254
17727805
17611129
21607303
22489409
17075107
13578318
5694471
4311542
20067185
2576014
3937410
17030378
6105908
11753477
18166722
19626038
19937883
1212103
19177679
23688196
13510232
23125942
8653547
4827651
15686156
6798468
15742401
10566
24883615
954578
22948161
14776139
24572489
18546544
21507286
20322938
11039364
11835987
8698966
18903095
8247732
10392552
10007723
21124235
6089268
2700564
5940257
591542
14077094
10129707
6688448
20594902
